Route #1: 22 52 92 102 26 62 33
Route #2: 90 7 75 84 24 104 1
Route #3: 78 12 9 101 28 103 43 53
Route #4: 66 97 93 87 76 60 51
Route #5: 37 79 71 49 46 15 44 5
Route #6: 45 100 11 99 21 27 19
Route #7: 25 56 85 54 74 34 96
Route #8: 29 72 63 13 40 77 83 67
Route #9: 82 57 31 17 2 48 8 58
Route #10: 14 88 36 91 69 105 64 94
Route #11: 86 18 41 10 16 20 35
Route #12: 47 38 89 32 73 59 95 68
Route #13: 55 23 3 42 30 4 65 80
Route #14: 98 70 6 81 50 39 61
Cost 28057
